# Plate Description Version 3
# HALCON Version 18.05 --  Tue Feb 19 17:06:06 2019
# Description of the standard calibration plate
# used for the camera calibration in HALCON
# (generated by create_caltab)
#
#

# 13 rows x 15 columns
# Width, height of calibration plate [meter]: 0.0825, 0.0612917
# Distance between mark centers [meter]: 0.005

# Number of marks in y-dimension (rows)
r 13

# Number of marks in x-dimension (columns)
c 15

# offset of coordinate system in z-dimension [meter] (optional):
z 0

# rim of the calibration plate (min x, max y, max x, min y) [meter]:
o -0.04375 0.0322307621135332 0.04125 -0.0322307621135332

# polarity of the marks (light or dark):
p light

# number of finder pattern marks:
f 5

# position of the finder patterns (central mark):  x y [index]
7 6
2 2
12 2
2 10
12 10

# calibration marks:  x y radius [meter]

# calibration marks at y = -0.0259808 m
-0.035 -0.0259807621135332 0.00125
-0.03 -0.0259807621135332 0.00125
-0.025 -0.0259807621135332 0.00125
-0.02 -0.0259807621135332 0.00125
-0.015 -0.0259807621135332 0.00125
-0.01 -0.0259807621135332 0.00125
-0.005 -0.0259807621135332 0.00125
0 -0.0259807621135332 0.00125
0.005 -0.0259807621135332 0.00125
0.01 -0.0259807621135332 0.00125
0.015 -0.0259807621135332 0.00125
0.02 -0.0259807621135332 0.00125
0.025 -0.0259807621135332 0.00125
0.03 -0.0259807621135332 0.00125
0.035 -0.0259807621135332 0.00125

# calibration marks at y = -0.0216506 m
-0.0375 -0.021650635094611 0.00125
-0.0325 -0.021650635094611 0.00125
-0.0275 -0.021650635094611 0.00125
-0.0225 -0.021650635094611 0.00125
-0.0175 -0.021650635094611 0.00125
-0.0125 -0.021650635094611 0.00125
-0.0075 -0.021650635094611 0.00125
-0.0025 -0.021650635094611 0.00125
0.0025 -0.021650635094611 0.00125
0.0075 -0.021650635094611 0.00125
0.0125 -0.021650635094611 0.00125
0.0175 -0.021650635094611 0.00125
0.0225 -0.021650635094611 0.00125
0.0275 -0.021650635094611 0.00125
0.0325 -0.021650635094611 0.00125

# calibration marks at y = -0.0173205 m
-0.035 -0.0173205080756888 0.00125
-0.03 -0.0173205080756888 0.00125
-0.025 -0.0173205080756888 0.00125
-0.02 -0.0173205080756888 0.00125
-0.015 -0.0173205080756888 0.00125
-0.01 -0.0173205080756888 0.00125
-0.005 -0.0173205080756888 0.00125
0 -0.0173205080756888 0.00125
0.005 -0.0173205080756888 0.00125
0.01 -0.0173205080756888 0.00125
0.015 -0.0173205080756888 0.00125
0.02 -0.0173205080756888 0.00125
0.025 -0.0173205080756888 0.00125
0.03 -0.0173205080756888 0.00125
0.035 -0.0173205080756888 0.00125

# calibration marks at y = -0.0129904 m
-0.0375 -0.0129903810567666 0.00125
-0.0325 -0.0129903810567666 0.00125
-0.0275 -0.0129903810567666 0.00125
-0.0225 -0.0129903810567666 0.00125
-0.0175 -0.0129903810567666 0.00125
-0.0125 -0.0129903810567666 0.00125
-0.0075 -0.0129903810567666 0.00125
-0.0025 -0.0129903810567666 0.00125
0.0025 -0.0129903810567666 0.00125
0.0075 -0.0129903810567666 0.00125
0.0125 -0.0129903810567666 0.00125
0.0175 -0.0129903810567666 0.00125
0.0225 -0.0129903810567666 0.00125
0.0275 -0.0129903810567666 0.00125
0.0325 -0.0129903810567666 0.00125

# calibration marks at y = -0.00866025 m
-0.035 -0.00866025403784439 0.00125
-0.03 -0.00866025403784439 0.00125
-0.025 -0.00866025403784439 0.00125
-0.02 -0.00866025403784439 0.00125
-0.015 -0.00866025403784439 0.00125
-0.01 -0.00866025403784439 0.00125
-0.005 -0.00866025403784439 0.00125
0 -0.00866025403784439 0.00125
0.005 -0.00866025403784439 0.00125
0.01 -0.00866025403784439 0.00125
0.015 -0.00866025403784439 0.00125
0.02 -0.00866025403784439 0.00125
0.025 -0.00866025403784439 0.00125
0.03 -0.00866025403784439 0.00125
0.035 -0.00866025403784439 0.00125

# calibration marks at y = -0.00433013 m
-0.0375 -0.00433012701892219 0.00125
-0.0325 -0.00433012701892219 0.00125
-0.0275 -0.00433012701892219 0.00125
-0.0225 -0.00433012701892219 0.00125
-0.0175 -0.00433012701892219 0.00125
-0.0125 -0.00433012701892219 0.00125
-0.0075 -0.00433012701892219 0.00125
-0.0025 -0.00433012701892219 0.00125
0.0025 -0.00433012701892219 0.00125
0.0075 -0.00433012701892219 0.00125
0.0125 -0.00433012701892219 0.00125
0.0175 -0.00433012701892219 0.00125
0.0225 -0.00433012701892219 0.00125
0.0275 -0.00433012701892219 0.00125
0.0325 -0.00433012701892219 0.00125

# calibration marks at y = 0 m
-0.035 0 0.00125
-0.03 0 0.00125
-0.025 0 0.00125
-0.02 0 0.00125
-0.015 0 0.00125
-0.01 0 0.00125
-0.005 0 0.00125
0 0 0.00125
0.005 0 0.00125
0.01 0 0.00125
0.015 0 0.00125
0.02 0 0.00125
0.025 0 0.00125
0.03 0 0.00125
0.035 0 0.00125

# calibration marks at y = 0.00433013 m
-0.0375 0.00433012701892219 0.00125
-0.0325 0.00433012701892219 0.00125
-0.0275 0.00433012701892219 0.00125
-0.0225 0.00433012701892219 0.00125
-0.0175 0.00433012701892219 0.00125
-0.0125 0.00433012701892219 0.00125
-0.0075 0.00433012701892219 0.00125
-0.0025 0.00433012701892219 0.00125
0.0025 0.00433012701892219 0.00125
0.0075 0.00433012701892219 0.00125
0.0125 0.00433012701892219 0.00125
0.0175 0.00433012701892219 0.00125
0.0225 0.00433012701892219 0.00125
0.0275 0.00433012701892219 0.00125
0.0325 0.00433012701892219 0.00125

# calibration marks at y = 0.00866025 m
-0.035 0.00866025403784439 0.00125
-0.03 0.00866025403784439 0.00125
-0.025 0.00866025403784439 0.00125
-0.02 0.00866025403784439 0.00125
-0.015 0.00866025403784439 0.00125
-0.01 0.00866025403784439 0.00125
-0.005 0.00866025403784439 0.00125
0 0.00866025403784439 0.00125
0.005 0.00866025403784439 0.00125
0.01 0.00866025403784439 0.00125
0.015 0.00866025403784439 0.00125
0.02 0.00866025403784439 0.00125
0.025 0.00866025403784439 0.00125
0.03 0.00866025403784439 0.00125
0.035 0.00866025403784439 0.00125

# calibration marks at y = 0.0129904 m
-0.0375 0.0129903810567666 0.00125
-0.0325 0.0129903810567666 0.00125
-0.0275 0.0129903810567666 0.00125
-0.0225 0.0129903810567666 0.00125
-0.0175 0.0129903810567666 0.00125
-0.0125 0.0129903810567666 0.00125
-0.0075 0.0129903810567666 0.00125
-0.0025 0.0129903810567666 0.00125
0.0025 0.0129903810567666 0.00125
0.0075 0.0129903810567666 0.00125
0.0125 0.0129903810567666 0.00125
0.0175 0.0129903810567666 0.00125
0.0225 0.0129903810567666 0.00125
0.0275 0.0129903810567666 0.00125
0.0325 0.0129903810567666 0.00125

# calibration marks at y = 0.0173205 m
-0.035 0.0173205080756888 0.00125
-0.03 0.0173205080756888 0.00125
-0.025 0.0173205080756888 0.00125
-0.02 0.0173205080756888 0.00125
-0.015 0.0173205080756888 0.00125
-0.01 0.0173205080756888 0.00125
-0.005 0.0173205080756888 0.00125
0 0.0173205080756888 0.00125
0.005 0.0173205080756888 0.00125
0.01 0.0173205080756888 0.00125
0.015 0.0173205080756888 0.00125
0.02 0.0173205080756888 0.00125
0.025 0.0173205080756888 0.00125
0.03 0.0173205080756888 0.00125
0.035 0.0173205080756888 0.00125

# calibration marks at y = 0.0216506 m
-0.0375 0.021650635094611 0.00125
-0.0325 0.021650635094611 0.00125
-0.0275 0.021650635094611 0.00125
-0.0225 0.021650635094611 0.00125
-0.0175 0.021650635094611 0.00125
-0.0125 0.021650635094611 0.00125
-0.0075 0.021650635094611 0.00125
-0.0025 0.021650635094611 0.00125
0.0025 0.021650635094611 0.00125
0.0075 0.021650635094611 0.00125
0.0125 0.021650635094611 0.00125
0.0175 0.021650635094611 0.00125
0.0225 0.021650635094611 0.00125
0.0275 0.021650635094611 0.00125
0.0325 0.021650635094611 0.00125

# calibration marks at y = 0.0259808 m
-0.035 0.0259807621135332 0.00125
-0.03 0.0259807621135332 0.00125
-0.025 0.0259807621135332 0.00125
-0.02 0.0259807621135332 0.00125
-0.015 0.0259807621135332 0.00125
-0.01 0.0259807621135332 0.00125
-0.005 0.0259807621135332 0.00125
0 0.0259807621135332 0.00125
0.005 0.0259807621135332 0.00125
0.01 0.0259807621135332 0.00125
0.015 0.0259807621135332 0.00125
0.02 0.0259807621135332 0.00125
0.025 0.0259807621135332 0.00125
0.03 0.0259807621135332 0.00125
0.035 0.0259807621135332 0.00125
